
(set-logic ALL) 

(declare-datatype MyList ((Nil) (Cons (head Real) (tail MyList)) )) 
(declare-fun l0 () MyList) 
(declare-fun l1 () MyList) 
(declare-fun l2 () MyList) 
(declare-fun l3 () MyList) 
(declare-fun i0 () Real) 
(declare-fun i1 () Real) 
(assert (and (= l2 Nil) (= l0 l0) (= l0 l2)) )
(assert (is-Nil Nil) )
(assert (is-Nil Nil) )
(assert (= l3 Nil) )
(assert (or (= l3 Nil) (is-Nil Nil) (is-Nil Nil) (is-Nil Nil)) )
(assert (= l3 Nil) )
(assert (not (is-Cons l2)) )
(assert (not (is-Nil Nil)) )
(check-sat)
